100
32
31
28
2
13
6
17
4
24
3
23
24
10
28
24
15
10
24
10
2
3
11
2
19
1
2
20
1
1
2
3
3
5
3
4
17
2
17
18
1
5
5
1
1
3
6
3
19
7
1
2
6
2
3
19
18
4
2
3
1
2
2
3
22
2
4
18
5
1
1
2
1
20
11
20
1
1
1
1
4
3
1
2
4
1
2
2
4
3
3
1
4
4
3
3
2
3
3
1
1
2